0 252 860
1 877 688
2 786 889
3 129 678
4 883 808
5 537 688
6 843 667
7 916 803
8 650 360
9 837 980
10 545 262
11 833 967
12 628 311
13 470 56
14 77 855
15 454 345
16 354 593
17 329 826
18 430 353
19 740 329
20 740 370
21 246 128
22 26 303
23 671 32
24 107 621
25 542 820
26 774 620
27 711 881
28 696 637
29 897 703
30 66 671
31 901 495
32 888 842
33 643 56
34 198 217
35 959 720
36 822 305
37 481 936
38 27 473
39 279 199
40 919 498
41 47 131
42 450 358
43 800 872
44 635 479
45 23 60
46 590 901
47 959 625
48 726 531
49 192 690